Route #1: 4
Route #2: 26 34 24 17 28 35 31 20 29 25 27 21 22 30 33
Route #3: 40 45 23 16 18 32 47 46
Route #4: 10 12 69 55 56 58 61 57 60 62 59 68 70 36 11
Route #5: 6 48 50 41
Route #6: 13 43 44 39 14
Route #7: 9 15 72 75 5 2
Route #8: 53 65 66 67 64 63 73 74
Route #9: 51 42 37 49 54 19 38 52 3 71
Route #10: 7 1 8
Cost 1359.7677935832533